\Problem name: 

Minimize
obj: 81 X_0_0 + 36 X_0_1 + 51 X_0_2 + 62 X_0_3 + 62 X_0_4 + 19 X_0_5 + 19 X_0_6 + 19 X_0_7 + 19 X_0_8 + 155 X_0_9
 + 155 X_0_10 + 99 X_0_11 + 99 X_0_12 + 99 X_0_13 + 99 X_0_14 + 81 X_0_15 + 63 X_0_16 + 19 X_0_17 + 43 X_0_18 + 69 X_0_19
 + 99 X_0_20 + 69 X_0_21 + 81 X_0_22 + 63 X_0_23 + 63 X_0_24 + 43 X_0_25 + 37 X_0_27 + 37 X_0_29 + 114 X_0_30 + 100 X_0_31
 + 81 X_0_32 + 55 X_0_33 + 63 X_0_34 + 108 X_0_35 + 51 X_0_36 + 58 X_0_37 + 75 X_0_38 + 75 X_0_39 + 55 X_0_40 + 55 X_0_41
 + 55 X_0_42 + 36 X_0_43 + 36 X_0_44 + 51 X_0_45 + 62 X_0_46 + 62 X_0_47 + 62 X_0_48 + 55 X_0_49 + 22 X_0_50 + 99 X_0_51
 + 22 X_0_52 + 81 X_0_53 + 81 X_0_54 + 43 X_0_55 + 58 X_0_58 + 37 X_0_59 + 58 X_0_60 + 37 X_0_61 + 51 X_0_62 + 97 X_1_0
 + 17 X_1_1 + 32 X_1_2 + 43 X_1_3 + 43 X_1_4 + 136 X_1_9 + 136 X_1_10 + 80 X_1_11 + 80 X_1_12 + 80 X_1_13 + 80 X_1_14
 + 62 X_1_15 + 62 X_1_16 + 59 X_1_18 + 50 X_1_19 + 80 X_1_20 + 50 X_1_21 + 97 X_1_22 + 62 X_1_23 + 79 X_1_24 + 59 X_1_25
 + 19 X_1_26 + 18 X_1_27 + 18 X_1_28 + 18 X_1_29 + 130 X_1_30 + 112 X_1_31 + 97 X_1_32 + 36 X_1_33 + 79 X_1_34 + 89 X_1_35
 + 32 X_1_36 + 39 X_1_37 + 56 X_1_38 + 56 X_1_39 + 36 X_1_40 + 36 X_1_41 + 36 X_1_42 + 17 X_1_43 + 17 X_1_44 + 32 X_1_45
 + 43 X_1_46 + 43 X_1_47 + 43 X_1_48 + 36 X_1_49 + 39 X_1_50 + 80 X_1_51 + 39 X_1_52 + 97 X_1_53 + 97 X_1_54 + 59 X_1_55
 + 19 X_1_56 + 19 X_1_57 + 39 X_1_58 + 18 X_1_59 + 39 X_1_60 + 18 X_1_61 + 32 X_1_62 + 54 X_2_0 + 20 X_2_1 + 100 X_2_2
 + 74 X_2_3 + 70 X_2_4 + 136 X_2_5 + 136 X_2_6 + 22 X_2_11 + 54 X_2_12 + 56 X_2_13 + 54 X_2_14 + 74 X_2_15 + 74 X_2_16
 + 91 X_2_17 + 91 X_2_18 + 22 X_2_19 + 56 X_2_20 + 60 X_2_21 + 60 X_2_22 + 74 X_2_23 + 20 X_2_24 + 111 X_2_25 + 121 X_2_27
 + 121 X_2_28 + 38 X_2_29 + 38 X_2_30 + 38 X_2_31 + 79 X_2_32 + 79 X_2_33 + 20 X_2_34 + 20 X_2_35 + 56 X_2_36 + 74 X_2_37
 + 74 X_2_38 + 79 X_2_39 + 83 X_2_40 + 79 X_2_41 + 70 X_2_42 + 114 X_2_43 + 114 X_2_44 + 37 X_2_45 + 37 X_2_46 + 83 X_2_47
 + 37 X_2_48 + 70 X_2_49 + 74 X_2_50 + 22 X_2_51 + 74 X_2_52 + 60 X_2_53 + 79 X_2_54 + 56 X_2_55 + 120 X_2_56 + 100 X_2_57
 + 56 X_2_58 + 100 X_2_59 + 37 X_2_60 + 74 X_2_61 + 37 X_2_62
Subject To
cons0:  X_0_0 + X_1_0 + X_2_0 = 1
cons1:  X_0_1 + X_1_1 + X_2_1 = 1
cons2:  X_0_2 + X_1_2 + X_2_2 = 1
cons3:  X_0_3 + X_1_3 + X_2_3 = 1
cons4:  X_0_4 + X_1_4 + X_2_4 = 1
cons5:  X_0_5 + X_1_5 + X_2_5 = 1
cons6:  X_0_6 + X_1_6 + X_2_6 = 1
cons7:  X_0_7 + X_1_7 + X_2_7 = 1
cons8:  X_0_8 + X_1_8 + X_2_8 = 1
cons9:  X_0_9 + X_1_9 + X_2_9 = 1
cons10:  X_0_10 + X_1_10 + X_2_10 = 1
cons11:  X_0_11 + X_1_11 + X_2_11 = 1
cons12:  X_0_12 + X_1_12 + X_2_12 = 1
cons13:  X_0_13 + X_1_13 + X_2_13 = 1
cons14:  X_0_14 + X_1_14 + X_2_14 = 1
cons15:  X_0_15 + X_1_15 + X_2_15 = 1
cons16:  X_0_16 + X_1_16 + X_2_16 = 1
cons17:  X_0_17 + X_1_17 + X_2_17 = 1
cons18:  X_0_18 + X_1_18 + X_2_18 = 1
cons19:  X_0_19 + X_1_19 + X_2_19 = 1
cons20:  X_0_20 + X_1_20 + X_2_20 = 1
cons21:  X_0_21 + X_1_21 + X_2_21 = 1
cons22:  X_0_22 + X_1_22 + X_2_22 = 1
cons23:  X_0_23 + X_1_23 + X_2_23 = 1
cons24:  X_0_24 + X_1_24 + X_2_24 = 1
cons25:  X_0_25 + X_1_25 + X_2_25 = 1
cons26:  X_0_26 + X_1_26 + X_2_26 = 1
cons27:  X_0_27 + X_1_27 + X_2_27 = 1
cons28:  X_0_28 + X_1_28 + X_2_28 = 1
cons29:  X_0_29 + X_1_29 + X_2_29 = 1
cons30:  X_0_30 + X_1_30 + X_2_30 = 1
cons31:  X_0_31 + X_1_31 + X_2_31 = 1
cons32:  X_0_32 + X_1_32 + X_2_32 = 1
cons33:  X_0_33 + X_1_33 + X_2_33 = 1
cons34:  X_0_34 + X_1_34 + X_2_34 = 1
cons35:  X_0_35 + X_1_35 + X_2_35 = 1
cons36:  X_0_36 + X_1_36 + X_2_36 = 1
cons37:  X_0_37 + X_1_37 + X_2_37 = 1
cons38:  X_0_38 + X_1_38 + X_2_38 = 1
cons39:  X_0_39 + X_1_39 + X_2_39 = 1
cons40:  X_0_40 + X_1_40 + X_2_40 = 1
cons41:  X_0_41 + X_1_41 + X_2_41 = 1
cons42:  X_0_42 + X_1_42 + X_2_42 = 1
cons43:  X_0_43 + X_1_43 + X_2_43 = 1
cons44:  X_0_44 + X_1_44 + X_2_44 = 1
cons45:  X_0_45 + X_1_45 + X_2_45 = 1
cons46:  X_0_46 + X_1_46 + X_2_46 = 1
cons47:  X_0_47 + X_1_47 + X_2_47 = 1
cons48:  X_0_48 + X_1_48 + X_2_48 = 1
cons49:  X_0_49 + X_1_49 + X_2_49 = 1
cons50:  X_0_50 + X_1_50 + X_2_50 = 1
cons51:  X_0_51 + X_1_51 + X_2_51 = 1
cons52:  X_0_52 + X_1_52 + X_2_52 = 1
cons53:  X_0_53 + X_1_53 + X_2_53 = 1
cons54:  X_0_54 + X_1_54 + X_2_54 = 1
cons55:  X_0_55 + X_1_55 + X_2_55 = 1
cons56:  X_0_56 + X_1_56 + X_2_56 = 1
cons57:  X_0_57 + X_1_57 + X_2_57 = 1
cons58:  X_0_58 + X_1_58 + X_2_58 = 1
cons59:  X_0_59 + X_1_59 + X_2_59 = 1
cons60:  X_0_60 + X_1_60 + X_2_60 = 1
cons61:  X_0_61 + X_1_61 + X_2_61 = 1
cons62:  X_0_62 + X_1_62 + X_2_62 = 1
cons63:  453 X_0_0 + 478 X_0_1 + 204 X_0_2 + 707 X_0_3 + 715 X_0_4 + 240 X_0_5 + 265 X_0_6 + 97 X_0_7 + 264 X_0_8 + 325 X_0_9
 + 183 X_0_10 + 214 X_0_11 + 207 X_0_12 + 112 X_0_13 + 47 X_0_14 + 187 X_0_15 + 101 X_0_16 + 122 X_0_17 + 153 X_0_18 + 324 X_0_19
 + 285 X_0_20 + 66 X_0_21 + 14 X_0_22 + 311 X_0_23 + 381 X_0_24 + 172 X_0_25 + 205 X_0_26 + 300 X_0_27 + 301 X_0_28 + 14 X_0_29
 + 88 X_0_30 + 372 X_0_31 + 379 X_0_32 + 110 X_0_33 + 390 X_0_34 + 343 X_0_35 + 238 X_0_36 + 94 X_0_37 + 308 X_0_38 + 139 X_0_39
 + 349 X_0_40 + 377 X_0_41 + 53 X_0_42 + 147 X_0_43 + 334 X_0_44 + 54 X_0_45 + 368 X_0_46 + 159 X_0_47 + 247 X_0_48 + 146 X_0_49
 <= 7285.20000
cons64:  453 X_1_0 + 478 X_1_1 + 204 X_1_2 + 707 X_1_3 + 715 X_1_4 + 240 X_1_5 + 265 X_1_6 + 97 X_1_7 + 264 X_1_8 + 325 X_1_9
 + 183 X_1_10 + 214 X_1_11 + 207 X_1_12 + 112 X_1_13 + 47 X_1_14 + 187 X_1_15 + 101 X_1_16 + 122 X_1_17 + 153 X_1_18 + 324 X_1_19
 + 285 X_1_20 + 66 X_1_21 + 14 X_1_22 + 311 X_1_23 + 381 X_1_24 + 172 X_1_25 + 205 X_1_26 + 300 X_1_27 + 301 X_1_28 + 14 X_1_29
 + 88 X_1_30 + 372 X_1_31 + 379 X_1_32 + 110 X_1_33 + 390 X_1_34 + 343 X_1_35 + 238 X_1_36 + 94 X_1_37 + 308 X_1_38 + 139 X_1_39
 + 349 X_1_40 + 377 X_1_41 + 53 X_1_42 + 147 X_1_43 + 334 X_1_44 + 54 X_1_45 + 368 X_1_46 + 159 X_1_47 + 247 X_1_48 + 146 X_1_49
 <= 7285.20000
cons65:  453 X_2_0 + 478 X_2_1 + 204 X_2_2 + 707 X_2_3 + 715 X_2_4 + 240 X_2_5 + 265 X_2_6 + 97 X_2_7 + 264 X_2_8 + 325 X_2_9
 + 183 X_2_10 + 214 X_2_11 + 207 X_2_12 + 112 X_2_13 + 47 X_2_14 + 187 X_2_15 + 101 X_2_16 + 122 X_2_17 + 153 X_2_18 + 324 X_2_19
 + 285 X_2_20 + 66 X_2_21 + 14 X_2_22 + 311 X_2_23 + 381 X_2_24 + 172 X_2_25 + 205 X_2_26 + 300 X_2_27 + 301 X_2_28 + 14 X_2_29
 + 88 X_2_30 + 372 X_2_31 + 379 X_2_32 + 110 X_2_33 + 390 X_2_34 + 343 X_2_35 + 238 X_2_36 + 94 X_2_37 + 308 X_2_38 + 139 X_2_39
 + 349 X_2_40 + 377 X_2_41 + 53 X_2_42 + 147 X_2_43 + 334 X_2_44 + 54 X_2_45 + 368 X_2_46 + 159 X_2_47 + 247 X_2_48 + 146 X_2_49
 <= 7285.20000
cons66:  453 X_0_0 + 478 X_0_1 + 204 X_0_2 + 707 X_0_3 + 715 X_0_4 + 240 X_0_5 + 265 X_0_6 + 97 X_0_7 + 264 X_0_8 + 325 X_0_9
 + 183 X_0_10 + 214 X_0_11 + 207 X_0_12 + 112 X_0_13 + 47 X_0_14 + 187 X_0_15 + 101 X_0_16 + 122 X_0_17 + 153 X_0_18 + 324 X_0_19
 + 285 X_0_20 + 66 X_0_21 + 14 X_0_22 + 311 X_0_23 + 381 X_0_24 + 172 X_0_25 + 205 X_0_26 + 300 X_0_27 + 301 X_0_28 + 14 X_0_29
 + 88 X_0_30 + 372 X_0_31 + 379 X_0_32 + 110 X_0_33 + 390 X_0_34 + 343 X_0_35 + 238 X_0_36 + 94 X_0_37 + 308 X_0_38 + 139 X_0_39
 + 349 X_0_40 + 377 X_0_41 + 53 X_0_42 + 147 X_0_43 + 334 X_0_44 + 54 X_0_45 + 368 X_0_46 + 159 X_0_47 + 247 X_0_48 + 146 X_0_49
 >= 809.46667
cons67:  453 X_1_0 + 478 X_1_1 + 204 X_1_2 + 707 X_1_3 + 715 X_1_4 + 240 X_1_5 + 265 X_1_6 + 97 X_1_7 + 264 X_1_8 + 325 X_1_9
 + 183 X_1_10 + 214 X_1_11 + 207 X_1_12 + 112 X_1_13 + 47 X_1_14 + 187 X_1_15 + 101 X_1_16 + 122 X_1_17 + 153 X_1_18 + 324 X_1_19
 + 285 X_1_20 + 66 X_1_21 + 14 X_1_22 + 311 X_1_23 + 381 X_1_24 + 172 X_1_25 + 205 X_1_26 + 300 X_1_27 + 301 X_1_28 + 14 X_1_29
 + 88 X_1_30 + 372 X_1_31 + 379 X_1_32 + 110 X_1_33 + 390 X_1_34 + 343 X_1_35 + 238 X_1_36 + 94 X_1_37 + 308 X_1_38 + 139 X_1_39
 + 349 X_1_40 + 377 X_1_41 + 53 X_1_42 + 147 X_1_43 + 334 X_1_44 + 54 X_1_45 + 368 X_1_46 + 159 X_1_47 + 247 X_1_48 + 146 X_1_49
 >= 809.46667
cons68:  453 X_2_0 + 478 X_2_1 + 204 X_2_2 + 707 X_2_3 + 715 X_2_4 + 240 X_2_5 + 265 X_2_6 + 97 X_2_7 + 264 X_2_8 + 325 X_2_9
 + 183 X_2_10 + 214 X_2_11 + 207 X_2_12 + 112 X_2_13 + 47 X_2_14 + 187 X_2_15 + 101 X_2_16 + 122 X_2_17 + 153 X_2_18 + 324 X_2_19
 + 285 X_2_20 + 66 X_2_21 + 14 X_2_22 + 311 X_2_23 + 381 X_2_24 + 172 X_2_25 + 205 X_2_26 + 300 X_2_27 + 301 X_2_28 + 14 X_2_29
 + 88 X_2_30 + 372 X_2_31 + 379 X_2_32 + 110 X_2_33 + 390 X_2_34 + 343 X_2_35 + 238 X_2_36 + 94 X_2_37 + 308 X_2_38 + 139 X_2_39
 + 349 X_2_40 + 377 X_2_41 + 53 X_2_42 + 147 X_2_43 + 334 X_2_44 + 54 X_2_45 + 368 X_2_46 + 159 X_2_47 + 247 X_2_48 + 146 X_2_49
 >= 809.46667
cons69:  X_0_12 -6 W_0_5 <= -0
cons70:  X_0_0 + X_0_32 + X_0_53 -6 W_0_10 <= -0
cons71:  X_0_24 -6 W_0_17 <= -0
cons72:  X_0_1 + X_0_44 -6 W_0_23 <= -0
cons73:  X_0_57 + X_0_58 -6 W_0_19 <= -0
cons74:  X_0_2 + X_0_36 + X_0_43 + X_0_62 -6 W_0_24 <= -0
cons75:  X_0_37 -6 W_0_20 <= -0
cons76:  X_0_3 + X_0_46 -6 W_0_26 <= -0
cons77:  X_0_4 + X_0_42 -6 W_0_27 <= -0
cons78:  X_0_6 + X_0_52 -6 W_0_13 <= -0
cons79:  X_0_5 + X_0_8 + X_0_17 -6 W_0_1 <= -0
cons80:  X_0_7 + X_0_10 + X_0_26 -6 W_0_2 <= -0
cons81:  X_0_9 + X_0_11 + X_0_19 -6 W_0_3 <= -0
cons82:  X_0_14 + X_0_20 + X_0_51 -6 W_0_4 <= -0
cons83:  X_0_13 + X_0_22 + X_0_30 -6 W_0_9 <= -0
cons84:  X_0_23 + X_0_50 -6 W_0_6 <= -0
cons85:  X_0_15 -6 W_0_7 <= -0
cons86:  X_0_16 + X_0_25 + X_0_34 -6 W_0_11 <= -0
cons87:  X_0_18 + X_0_56 -6 W_0_12 <= -0
cons88:  X_0_21 + X_0_27 -6 W_0_8 <= -0
cons89:  X_0_28 -6 W_0_0 <= -0
cons90:  X_0_59 + X_0_61 -6 W_0_14 <= -0
cons91:  X_0_29 -6 W_0_15 <= -0
cons92:  X_0_31 + X_0_39 + X_0_41 + X_0_54 -6 W_0_16 <= -0
cons93:  X_0_33 + X_0_40 + X_0_49 -6 W_0_22 <= -0
cons94:  X_0_35 + X_0_55 -6 W_0_18 <= -0
cons95:  X_0_38 + X_0_47 -6 W_0_21 <= -0
cons96:  X_0_45 + X_0_48 + X_0_60 -6 W_0_25 <= -0
cons97:  X_1_12 -6 W_1_5 <= -0
cons98:  X_1_0 + X_1_32 + X_1_53 -6 W_1_10 <= -0
cons99:  X_1_24 -6 W_1_17 <= -0
cons100:  X_1_1 + X_1_44 -6 W_1_23 <= -0
cons101:  X_1_57 + X_1_58 -6 W_1_19 <= -0
cons102:  X_1_2 + X_1_36 + X_1_43 + X_1_62 -6 W_1_24 <= -0
cons103:  X_1_37 -6 W_1_20 <= -0
cons104:  X_1_3 + X_1_46 -6 W_1_26 <= -0
cons105:  X_1_4 + X_1_42 -6 W_1_27 <= -0
cons106:  X_1_6 + X_1_52 -6 W_1_13 <= -0
cons107:  X_1_5 + X_1_8 + X_1_17 -6 W_1_1 <= -0
cons108:  X_1_7 + X_1_10 + X_1_26 -6 W_1_2 <= -0
cons109:  X_1_9 + X_1_11 + X_1_19 -6 W_1_3 <= -0
cons110:  X_1_14 + X_1_20 + X_1_51 -6 W_1_4 <= -0
cons111:  X_1_13 + X_1_22 + X_1_30 -6 W_1_9 <= -0
cons112:  X_1_23 + X_1_50 -6 W_1_6 <= -0
cons113:  X_1_15 -6 W_1_7 <= -0
cons114:  X_1_16 + X_1_25 + X_1_34 -6 W_1_11 <= -0
cons115:  X_1_18 + X_1_56 -6 W_1_12 <= -0
cons116:  X_1_21 + X_1_27 -6 W_1_8 <= -0
cons117:  X_1_28 -6 W_1_0 <= -0
cons118:  X_1_59 + X_1_61 -6 W_1_14 <= -0
cons119:  X_1_29 -6 W_1_15 <= -0
cons120:  X_1_31 + X_1_39 + X_1_41 + X_1_54 -6 W_1_16 <= -0
cons121:  X_1_33 + X_1_40 + X_1_49 -6 W_1_22 <= -0
cons122:  X_1_35 + X_1_55 -6 W_1_18 <= -0
cons123:  X_1_38 + X_1_47 -6 W_1_21 <= -0
cons124:  X_1_45 + X_1_48 + X_1_60 -6 W_1_25 <= -0
cons125:  X_2_12 -6 W_2_5 <= -0
cons126:  X_2_0 + X_2_32 + X_2_53 -6 W_2_10 <= -0
cons127:  X_2_24 -6 W_2_17 <= -0
cons128:  X_2_1 + X_2_44 -6 W_2_23 <= -0
cons129:  X_2_57 + X_2_58 -6 W_2_19 <= -0
cons130:  X_2_2 + X_2_36 + X_2_43 + X_2_62 -6 W_2_24 <= -0
cons131:  X_2_37 -6 W_2_20 <= -0
cons132:  X_2_3 + X_2_46 -6 W_2_26 <= -0
cons133:  X_2_4 + X_2_42 -6 W_2_27 <= -0
cons134:  X_2_6 + X_2_52 -6 W_2_13 <= -0
cons135:  X_2_5 + X_2_8 + X_2_17 -6 W_2_1 <= -0
cons136:  X_2_7 + X_2_10 + X_2_26 -6 W_2_2 <= -0
cons137:  X_2_9 + X_2_11 + X_2_19 -6 W_2_3 <= -0
cons138:  X_2_14 + X_2_20 + X_2_51 -6 W_2_4 <= -0
cons139:  X_2_13 + X_2_22 + X_2_30 -6 W_2_9 <= -0
cons140:  X_2_23 + X_2_50 -6 W_2_6 <= -0
cons141:  X_2_15 -6 W_2_7 <= -0
cons142:  X_2_16 + X_2_25 + X_2_34 -6 W_2_11 <= -0
cons143:  X_2_18 + X_2_56 -6 W_2_12 <= -0
cons144:  X_2_21 + X_2_27 -6 W_2_8 <= -0
cons145:  X_2_28 -6 W_2_0 <= -0
cons146:  X_2_59 + X_2_61 -6 W_2_14 <= -0
cons147:  X_2_29 -6 W_2_15 <= -0
cons148:  X_2_31 + X_2_39 + X_2_41 + X_2_54 -6 W_2_16 <= -0
cons149:  X_2_33 + X_2_40 + X_2_49 -6 W_2_22 <= -0
cons150:  X_2_35 + X_2_55 -6 W_2_18 <= -0
cons151:  X_2_38 + X_2_47 -6 W_2_21 <= -0
cons152:  X_2_45 + X_2_48 + X_2_60 -6 W_2_25 <= -0
cons153:  X_0_12 - W_0_5 >= -0
cons154:  X_0_0 + X_0_32 + X_0_53 - W_0_10 >= -0
cons155:  X_0_24 - W_0_17 >= -0
cons156:  X_0_1 + X_0_44 - W_0_23 >= -0
cons157:  X_0_57 + X_0_58 - W_0_19 >= -0
cons158:  X_0_2 + X_0_36 + X_0_43 + X_0_62 - W_0_24 >= -0
cons159:  X_0_37 - W_0_20 >= -0
cons160:  X_0_3 + X_0_46 - W_0_26 >= -0
cons161:  X_0_4 + X_0_42 - W_0_27 >= -0
cons162:  X_0_6 + X_0_52 - W_0_13 >= -0
cons163:  X_0_5 + X_0_8 + X_0_17 - W_0_1 >= -0
cons164:  X_0_7 + X_0_10 + X_0_26 - W_0_2 >= -0
cons165:  X_0_9 + X_0_11 + X_0_19 - W_0_3 >= -0
cons166:  X_0_14 + X_0_20 + X_0_51 - W_0_4 >= -0
cons167:  X_0_13 + X_0_22 + X_0_30 - W_0_9 >= -0
cons168:  X_0_23 + X_0_50 - W_0_6 >= -0
cons169:  X_0_15 - W_0_7 >= -0
cons170:  X_0_16 + X_0_25 + X_0_34 - W_0_11 >= -0
cons171:  X_0_18 + X_0_56 - W_0_12 >= -0
cons172:  X_0_21 + X_0_27 - W_0_8 >= -0
cons173:  X_0_28 - W_0_0 >= -0
cons174:  X_0_59 + X_0_61 - W_0_14 >= -0
cons175:  X_0_29 - W_0_15 >= -0
cons176:  X_0_31 + X_0_39 + X_0_41 + X_0_54 - W_0_16 >= -0
cons177:  X_0_33 + X_0_40 + X_0_49 - W_0_22 >= -0
cons178:  X_0_35 + X_0_55 - W_0_18 >= -0
cons179:  X_0_38 + X_0_47 - W_0_21 >= -0
cons180:  X_0_45 + X_0_48 + X_0_60 - W_0_25 >= -0
cons181:  X_1_12 - W_1_5 >= -0
cons182:  X_1_0 + X_1_32 + X_1_53 - W_1_10 >= -0
cons183:  X_1_24 - W_1_17 >= -0
cons184:  X_1_1 + X_1_44 - W_1_23 >= -0
cons185:  X_1_57 + X_1_58 - W_1_19 >= -0
cons186:  X_1_2 + X_1_36 + X_1_43 + X_1_62 - W_1_24 >= -0
cons187:  X_1_37 - W_1_20 >= -0
cons188:  X_1_3 + X_1_46 - W_1_26 >= -0
cons189:  X_1_4 + X_1_42 - W_1_27 >= -0
cons190:  X_1_6 + X_1_52 - W_1_13 >= -0
cons191:  X_1_5 + X_1_8 + X_1_17 - W_1_1 >= -0
cons192:  X_1_7 + X_1_10 + X_1_26 - W_1_2 >= -0
cons193:  X_1_9 + X_1_11 + X_1_19 - W_1_3 >= -0
cons194:  X_1_14 + X_1_20 + X_1_51 - W_1_4 >= -0
cons195:  X_1_13 + X_1_22 + X_1_30 - W_1_9 >= -0
cons196:  X_1_23 + X_1_50 - W_1_6 >= -0
cons197:  X_1_15 - W_1_7 >= -0
cons198:  X_1_16 + X_1_25 + X_1_34 - W_1_11 >= -0
cons199:  X_1_18 + X_1_56 - W_1_12 >= -0
cons200:  X_1_21 + X_1_27 - W_1_8 >= -0
cons201:  X_1_28 - W_1_0 >= -0
cons202:  X_1_59 + X_1_61 - W_1_14 >= -0
cons203:  X_1_29 - W_1_15 >= -0
cons204:  X_1_31 + X_1_39 + X_1_41 + X_1_54 - W_1_16 >= -0
cons205:  X_1_33 + X_1_40 + X_1_49 - W_1_22 >= -0
cons206:  X_1_35 + X_1_55 - W_1_18 >= -0
cons207:  X_1_38 + X_1_47 - W_1_21 >= -0
cons208:  X_1_45 + X_1_48 + X_1_60 - W_1_25 >= -0
cons209:  X_2_12 - W_2_5 >= -0
cons210:  X_2_0 + X_2_32 + X_2_53 - W_2_10 >= -0
cons211:  X_2_24 - W_2_17 >= -0
cons212:  X_2_1 + X_2_44 - W_2_23 >= -0
cons213:  X_2_57 + X_2_58 - W_2_19 >= -0
cons214:  X_2_2 + X_2_36 + X_2_43 + X_2_62 - W_2_24 >= -0
cons215:  X_2_37 - W_2_20 >= -0
cons216:  X_2_3 + X_2_46 - W_2_26 >= -0
cons217:  X_2_4 + X_2_42 - W_2_27 >= -0
cons218:  X_2_6 + X_2_52 - W_2_13 >= -0
cons219:  X_2_5 + X_2_8 + X_2_17 - W_2_1 >= -0
cons220:  X_2_7 + X_2_10 + X_2_26 - W_2_2 >= -0
cons221:  X_2_9 + X_2_11 + X_2_19 - W_2_3 >= -0
cons222:  X_2_14 + X_2_20 + X_2_51 - W_2_4 >= -0
cons223:  X_2_13 + X_2_22 + X_2_30 - W_2_9 >= -0
cons224:  X_2_23 + X_2_50 - W_2_6 >= -0
cons225:  X_2_15 - W_2_7 >= -0
cons226:  X_2_16 + X_2_25 + X_2_34 - W_2_11 >= -0
cons227:  X_2_18 + X_2_56 - W_2_12 >= -0
cons228:  X_2_21 + X_2_27 - W_2_8 >= -0
cons229:  X_2_28 - W_2_0 >= -0
cons230:  X_2_59 + X_2_61 - W_2_14 >= -0
cons231:  X_2_29 - W_2_15 >= -0
cons232:  X_2_31 + X_2_39 + X_2_41 + X_2_54 - W_2_16 >= -0
cons233:  X_2_33 + X_2_40 + X_2_49 - W_2_22 >= -0
cons234:  X_2_35 + X_2_55 - W_2_18 >= -0
cons235:  X_2_38 + X_2_47 - W_2_21 >= -0
cons236:  X_2_45 + X_2_48 + X_2_60 - W_2_25 >= -0
cons237:  X_0_12 -3 Z_0_5 = -0
cons238:  X_0_0 + X_0_32 + X_0_53 -3 Z_0_10 = -0
cons239:  X_0_24 -3 Z_0_17 = -0
cons240:  X_0_1 + X_0_44 -3 Z_0_23 = -0
cons241:  X_0_57 + X_0_58 -3 Z_0_19 = -0
cons242:  X_0_2 + X_0_36 + X_0_43 + X_0_62 -3 Z_0_24 = -0
cons243:  X_0_37 -3 Z_0_20 = -0
cons244:  X_0_3 + X_0_46 -3 Z_0_26 = -0
cons245:  X_0_4 + X_0_42 -3 Z_0_27 = -0
cons246:  X_0_6 + X_0_52 -3 Z_0_13 = -0
cons247:  X_0_5 + X_0_8 + X_0_17 -3 Z_0_1 = -0
cons248:  X_0_7 + X_0_10 + X_0_26 -3 Z_0_2 = -0
cons249:  X_0_9 + X_0_11 + X_0_19 -3 Z_0_3 = -0
cons250:  X_0_14 + X_0_20 + X_0_51 -3 Z_0_4 = -0
cons251:  X_0_13 + X_0_22 + X_0_30 -3 Z_0_9 = -0
cons252:  X_0_23 + X_0_50 -3 Z_0_6 = -0
cons253:  X_0_15 -3 Z_0_7 = -0
cons254:  X_0_16 + X_0_25 + X_0_34 -3 Z_0_11 = -0
cons255:  X_0_18 + X_0_56 -3 Z_0_12 = -0
cons256:  X_0_21 + X_0_27 -3 Z_0_8 = -0
cons257:  X_0_28 -3 Z_0_0 = -0
cons258:  X_0_59 + X_0_61 -3 Z_0_14 = -0
cons259:  X_0_29 -3 Z_0_15 = -0
cons260:  X_0_31 + X_0_39 + X_0_41 + X_0_54 -3 Z_0_16 = -0
cons261:  X_0_33 + X_0_40 + X_0_49 -3 Z_0_22 = -0
cons262:  X_0_35 + X_0_55 -3 Z_0_18 = -0
cons263:  X_0_38 + X_0_47 -3 Z_0_21 = -0
cons264:  X_0_45 + X_0_48 + X_0_60 -3 Z_0_25 = -0
cons265:  X_1_12 -3 Z_1_5 = -0
cons266:  X_1_0 + X_1_32 + X_1_53 -3 Z_1_10 = -0
cons267:  X_1_24 -3 Z_1_17 = -0
cons268:  X_1_1 + X_1_44 -3 Z_1_23 = -0
cons269:  X_1_57 + X_1_58 -3 Z_1_19 = -0
cons270:  X_1_2 + X_1_36 + X_1_43 + X_1_62 -3 Z_1_24 = -0
cons271:  X_1_37 -3 Z_1_20 = -0
cons272:  X_1_3 + X_1_46 -3 Z_1_26 = -0
cons273:  X_1_4 + X_1_42 -3 Z_1_27 = -0
cons274:  X_1_6 + X_1_52 -3 Z_1_13 = -0
cons275:  X_1_5 + X_1_8 + X_1_17 -3 Z_1_1 = -0
cons276:  X_1_7 + X_1_10 + X_1_26 -3 Z_1_2 = -0
cons277:  X_1_9 + X_1_11 + X_1_19 -3 Z_1_3 = -0
cons278:  X_1_14 + X_1_20 + X_1_51 -3 Z_1_4 = -0
cons279:  X_1_13 + X_1_22 + X_1_30 -3 Z_1_9 = -0
cons280:  X_1_23 + X_1_50 -3 Z_1_6 = -0
cons281:  X_1_15 -3 Z_1_7 = -0
cons282:  X_1_16 + X_1_25 + X_1_34 -3 Z_1_11 = -0
cons283:  X_1_18 + X_1_56 -3 Z_1_12 = -0
cons284:  X_1_21 + X_1_27 -3 Z_1_8 = -0
cons285:  X_1_28 -3 Z_1_0 = -0
cons286:  X_1_59 + X_1_61 -3 Z_1_14 = -0
cons287:  X_1_29 -3 Z_1_15 = -0
cons288:  X_1_31 + X_1_39 + X_1_41 + X_1_54 -3 Z_1_16 = -0
cons289:  X_1_33 + X_1_40 + X_1_49 -3 Z_1_22 = -0
cons290:  X_1_35 + X_1_55 -3 Z_1_18 = -0
cons291:  X_1_38 + X_1_47 -3 Z_1_21 = -0
cons292:  X_1_45 + X_1_48 + X_1_60 -3 Z_1_25 = -0
cons293:  X_2_12 -3 Z_2_5 = -0
cons294:  X_2_0 + X_2_32 + X_2_53 -3 Z_2_10 = -0
cons295:  X_2_24 -3 Z_2_17 = -0
cons296:  X_2_1 + X_2_44 -3 Z_2_23 = -0
cons297:  X_2_57 + X_2_58 -3 Z_2_19 = -0
cons298:  X_2_2 + X_2_36 + X_2_43 + X_2_62 -3 Z_2_24 = -0
cons299:  X_2_37 -3 Z_2_20 = -0
cons300:  X_2_3 + X_2_46 -3 Z_2_26 = -0
cons301:  X_2_4 + X_2_42 -3 Z_2_27 = -0
cons302:  X_2_6 + X_2_52 -3 Z_2_13 = -0
cons303:  X_2_5 + X_2_8 + X_2_17 -3 Z_2_1 = -0
cons304:  X_2_7 + X_2_10 + X_2_26 -3 Z_2_2 = -0
cons305:  X_2_9 + X_2_11 + X_2_19 -3 Z_2_3 = -0
cons306:  X_2_14 + X_2_20 + X_2_51 -3 Z_2_4 = -0
cons307:  X_2_13 + X_2_22 + X_2_30 -3 Z_2_9 = -0
cons308:  X_2_23 + X_2_50 -3 Z_2_6 = -0
cons309:  X_2_15 -3 Z_2_7 = -0
cons310:  X_2_16 + X_2_25 + X_2_34 -3 Z_2_11 = -0
cons311:  X_2_18 + X_2_56 -3 Z_2_12 = -0
cons312:  X_2_21 + X_2_27 -3 Z_2_8 = -0
cons313:  X_2_28 -3 Z_2_0 = -0
cons314:  X_2_59 + X_2_61 -3 Z_2_14 = -0
cons315:  X_2_29 -3 Z_2_15 = -0
cons316:  X_2_31 + X_2_39 + X_2_41 + X_2_54 -3 Z_2_16 = -0
cons317:  X_2_33 + X_2_40 + X_2_49 -3 Z_2_22 = -0
cons318:  X_2_35 + X_2_55 -3 Z_2_18 = -0
cons319:  X_2_38 + X_2_47 -3 Z_2_21 = -0
cons320:  X_2_45 + X_2_48 + X_2_60 -3 Z_2_25 = -0
cons321:  Zbin_0_23 + Zbin_1_23 + Zbin_2_23 - r_23 >= -0
cons322:  Zbin_0_19 + Zbin_1_19 + Zbin_2_19 - r_19 >= -0
cons323:  Zbin_0_24 + Zbin_1_24 + Zbin_2_24 - r_24 >= -0
cons324:  Zbin_0_26 + Zbin_1_26 + Zbin_2_26 - r_26 >= -0
cons325:  Zbin_0_27 + Zbin_1_27 + Zbin_2_27 - r_27 >= -0
cons326:  Zbin_0_13 + Zbin_1_13 + Zbin_2_13 - r_13 >= -0
cons327:  Zbin_0_6 + Zbin_1_6 + Zbin_2_6 - r_6 >= -0
cons328:  Zbin_0_12 + Zbin_1_12 + Zbin_2_12 - r_12 >= -0
cons329:  Zbin_0_8 + Zbin_1_8 + Zbin_2_8 - r_8 >= -0
cons330:  Zbin_0_14 + Zbin_1_14 + Zbin_2_14 - r_14 >= -0
cons331:  Zbin_0_16 + Zbin_1_16 + Zbin_2_16 - r_16 >= -0
cons332:  Zbin_0_18 + Zbin_1_18 + Zbin_2_18 - r_18 >= -0
cons333:  Zbin_0_21 + Zbin_1_21 + Zbin_2_21 - r_21 >= -0
cons334:  Zbin_0_23 + Zbin_1_23 + Zbin_2_23 -3 r_23 <= -0
cons335:  Zbin_0_19 + Zbin_1_19 + Zbin_2_19 -3 r_19 <= -0
cons336:  Zbin_0_24 + Zbin_1_24 + Zbin_2_24 -3 r_24 <= -0
cons337:  Zbin_0_26 + Zbin_1_26 + Zbin_2_26 -3 r_26 <= -0
cons338:  Zbin_0_27 + Zbin_1_27 + Zbin_2_27 -3 r_27 <= -0
cons339:  Zbin_0_13 + Zbin_1_13 + Zbin_2_13 -3 r_13 <= -0
cons340:  Zbin_0_6 + Zbin_1_6 + Zbin_2_6 -3 r_6 <= -0
cons341:  Zbin_0_12 + Zbin_1_12 + Zbin_2_12 -3 r_12 <= -0
cons342:  Zbin_0_8 + Zbin_1_8 + Zbin_2_8 -3 r_8 <= -0
cons343:  Zbin_0_14 + Zbin_1_14 + Zbin_2_14 -3 r_14 <= -0
cons344:  Zbin_0_16 + Zbin_1_16 + Zbin_2_16 -3 r_16 <= -0
cons345:  Zbin_0_18 + Zbin_1_18 + Zbin_2_18 -3 r_18 <= -0
cons346:  Zbin_0_21 + Zbin_1_21 + Zbin_2_21 -3 r_21 <= -0
cons347:  Zbin_0_5 + Zbin_1_5 + Zbin_2_5 - r_5 >= 1
cons348:  Zbin_0_10 + Zbin_1_10 + Zbin_2_10 - r_10 >= 1
cons349:  Zbin_0_17 + Zbin_1_17 + Zbin_2_17 - r_17 >= 1
cons350:  Zbin_0_20 + Zbin_1_20 + Zbin_2_20 - r_20 >= 1
cons351:  Zbin_0_1 + Zbin_1_1 + Zbin_2_1 - r_1 >= 1
cons352:  Zbin_0_2 + Zbin_1_2 + Zbin_2_2 - r_2 >= 1
cons353:  Zbin_0_3 + Zbin_1_3 + Zbin_2_3 - r_3 >= 1
cons354:  Zbin_0_4 + Zbin_1_4 + Zbin_2_4 - r_4 >= 1
cons355:  Zbin_0_9 + Zbin_1_9 + Zbin_2_9 - r_9 >= 1
cons356:  Zbin_0_7 + Zbin_1_7 + Zbin_2_7 - r_7 >= 1
cons357:  Zbin_0_11 + Zbin_1_11 + Zbin_2_11 - r_11 >= 1
cons358:  Zbin_0_0 + Zbin_1_0 + Zbin_2_0 - r_0 >= 1
cons359:  Zbin_0_15 + Zbin_1_15 + Zbin_2_15 - r_15 >= 1
cons360:  Zbin_0_22 + Zbin_1_22 + Zbin_2_22 - r_22 >= 1
cons361:  Zbin_0_25 + Zbin_1_25 + Zbin_2_25 - r_25 >= 1
cons362:  Zbin_0_5 + Zbin_1_5 + Zbin_2_5 -3 r_5 <= 1
cons363:  Zbin_0_10 + Zbin_1_10 + Zbin_2_10 -3 r_10 <= 1
cons364:  Zbin_0_17 + Zbin_1_17 + Zbin_2_17 -3 r_17 <= 1
cons365:  Zbin_0_20 + Zbin_1_20 + Zbin_2_20 -3 r_20 <= 1
cons366:  Zbin_0_1 + Zbin_1_1 + Zbin_2_1 -3 r_1 <= 1
cons367:  Zbin_0_2 + Zbin_1_2 + Zbin_2_2 -3 r_2 <= 1
cons368:  Zbin_0_3 + Zbin_1_3 + Zbin_2_3 -3 r_3 <= 1
cons369:  Zbin_0_4 + Zbin_1_4 + Zbin_2_4 -3 r_4 <= 1
cons370:  Zbin_0_9 + Zbin_1_9 + Zbin_2_9 -3 r_9 <= 1
cons371:  Zbin_0_7 + Zbin_1_7 + Zbin_2_7 -3 r_7 <= 1
cons372:  Zbin_0_11 + Zbin_1_11 + Zbin_2_11 -3 r_11 <= 1
cons373:  Zbin_0_0 + Zbin_1_0 + Zbin_2_0 -3 r_0 <= 1
cons374:  Zbin_0_15 + Zbin_1_15 + Zbin_2_15 -3 r_15 <= 1
cons375:  Zbin_0_22 + Zbin_1_22 + Zbin_2_22 -3 r_22 <= 1
cons376:  Zbin_0_25 + Zbin_1_25 + Zbin_2_25 -3 r_25 <= 1
cons377:  0.03571 r_0 + 0.03571 r_1 + 0.03571 r_2 + 0.03571 r_3 + 0.03571 r_4 + 0.03571 r_5 + 0.03571 r_6 + 0.03571 r_7 + 0.03571 r_8 + 0.03571 r_9
 + 0.03571 r_10 + 0.03571 r_11 + 0.03571 r_12 + 0.03571 r_13 + 0.03571 r_14 + 0.03571 r_15 + 0.03571 r_16 + 0.03571 r_17 + 0.03571 r_18 + 0.03571 r_19
 + 0.03571 r_20 + 0.03571 r_21 + 0.03571 r_22 + 0.03571 r_23 + 0.03571 r_24 + 0.03571 r_25 + 0.03571 r_26 + 0.03571 r_27 <= 0.80000
Bounds
 0 <= X_0_0 <= 1
 0 <= X_0_1 <= 1
 0 <= X_0_2 <= 1
 0 <= X_0_3 <= 1
 0 <= X_0_4 <= 1
 0 <= X_0_5 <= 1
 0 <= X_0_6 <= 1
 0 <= X_0_7 <= 1
 0 <= X_0_8 <= 1
 0 <= X_0_9 <= 1
 0 <= X_0_10 <= 1
 0 <= X_0_11 <= 1
 0 <= X_0_12 <= 1
 0 <= X_0_13 <= 1
 0 <= X_0_14 <= 1
 0 <= X_0_15 <= 1
 0 <= X_0_16 <= 1
 0 <= X_0_17 <= 1
 0 <= X_0_18 <= 1
 0 <= X_0_19 <= 1
 0 <= X_0_20 <= 1
 0 <= X_0_21 <= 1
 0 <= X_0_22 <= 1
 0 <= X_0_23 <= 1
 0 <= X_0_24 <= 1
 0 <= X_0_25 <= 1
 0 <= X_0_26 <= 1
 0 <= X_0_27 <= 1
 0 <= X_0_28 <= 1
 0 <= X_0_29 <= 1
 0 <= X_0_30 <= 1
 0 <= X_0_31 <= 1
 0 <= X_0_32 <= 1
 0 <= X_0_33 <= 1
 0 <= X_0_34 <= 1
 0 <= X_0_35 <= 1
 0 <= X_0_36 <= 1
 0 <= X_0_37 <= 1
 0 <= X_0_38 <= 1
 0 <= X_0_39 <= 1
 0 <= X_0_40 <= 1
 0 <= X_0_41 <= 1
 0 <= X_0_42 <= 1
 0 <= X_0_43 <= 1
 0 <= X_0_44 <= 1
 0 <= X_0_45 <= 1
 0 <= X_0_46 <= 1
 0 <= X_0_47 <= 1
 0 <= X_0_48 <= 1
 0 <= X_0_49 <= 1
 0 <= X_0_50 <= 1
 0 <= X_0_51 <= 1
 0 <= X_0_52 <= 1
 0 <= X_0_53 <= 1
 0 <= X_0_54 <= 1
 0 <= X_0_55 <= 1
 0 <= X_0_56 <= 1
 0 <= X_0_57 <= 1
 0 <= X_0_58 <= 1
 0 <= X_0_59 <= 1
 0 <= X_0_60 <= 1
 0 <= X_0_61 <= 1
 0 <= X_0_62 <= 1
 0 <= X_1_0 <= 1
 0 <= X_1_1 <= 1
 0 <= X_1_2 <= 1
 0 <= X_1_3 <= 1
 0 <= X_1_4 <= 1
 0 <= X_1_5 <= 1
 0 <= X_1_6 <= 1
 0 <= X_1_7 <= 1
 0 <= X_1_8 <= 1
 0 <= X_1_9 <= 1
 0 <= X_1_10 <= 1
 0 <= X_1_11 <= 1
 0 <= X_1_12 <= 1
 0 <= X_1_13 <= 1
 0 <= X_1_14 <= 1
 0 <= X_1_15 <= 1
 0 <= X_1_16 <= 1
 0 <= X_1_17 <= 1
 0 <= X_1_18 <= 1
 0 <= X_1_19 <= 1
 0 <= X_1_20 <= 1
 0 <= X_1_21 <= 1
 0 <= X_1_22 <= 1
 0 <= X_1_23 <= 1
 0 <= X_1_24 <= 1
 0 <= X_1_25 <= 1
 0 <= X_1_26 <= 1
 0 <= X_1_27 <= 1
 0 <= X_1_28 <= 1
 0 <= X_1_29 <= 1
 0 <= X_1_30 <= 1
 0 <= X_1_31 <= 1
 0 <= X_1_32 <= 1
 0 <= X_1_33 <= 1
 0 <= X_1_34 <= 1
 0 <= X_1_35 <= 1
 0 <= X_1_36 <= 1
 0 <= X_1_37 <= 1
 0 <= X_1_38 <= 1
 0 <= X_1_39 <= 1
 0 <= X_1_40 <= 1
 0 <= X_1_41 <= 1
 0 <= X_1_42 <= 1
 0 <= X_1_43 <= 1
 0 <= X_1_44 <= 1
 0 <= X_1_45 <= 1
 0 <= X_1_46 <= 1
 0 <= X_1_47 <= 1
 0 <= X_1_48 <= 1
 0 <= X_1_49 <= 1
 0 <= X_1_50 <= 1
 0 <= X_1_51 <= 1
 0 <= X_1_52 <= 1
 0 <= X_1_53 <= 1
 0 <= X_1_54 <= 1
 0 <= X_1_55 <= 1
 0 <= X_1_56 <= 1
 0 <= X_1_57 <= 1
 0 <= X_1_58 <= 1
 0 <= X_1_59 <= 1
 0 <= X_1_60 <= 1
 0 <= X_1_61 <= 1
 0 <= X_1_62 <= 1
 0 <= X_2_0 <= 1
 0 <= X_2_1 <= 1
 0 <= X_2_2 <= 1
 0 <= X_2_3 <= 1
 0 <= X_2_4 <= 1
 0 <= X_2_5 <= 1
 0 <= X_2_6 <= 1
 0 <= X_2_7 <= 1
 0 <= X_2_8 <= 1
 0 <= X_2_9 <= 1
 0 <= X_2_10 <= 1
 0 <= X_2_11 <= 1
 0 <= X_2_12 <= 1
 0 <= X_2_13 <= 1
 0 <= X_2_14 <= 1
 0 <= X_2_15 <= 1
 0 <= X_2_16 <= 1
 0 <= X_2_17 <= 1
 0 <= X_2_18 <= 1
 0 <= X_2_19 <= 1
 0 <= X_2_20 <= 1
 0 <= X_2_21 <= 1
 0 <= X_2_22 <= 1
 0 <= X_2_23 <= 1
 0 <= X_2_24 <= 1
 0 <= X_2_25 <= 1
 0 <= X_2_26 <= 1
 0 <= X_2_27 <= 1
 0 <= X_2_28 <= 1
 0 <= X_2_29 <= 1
 0 <= X_2_30 <= 1
 0 <= X_2_31 <= 1
 0 <= X_2_32 <= 1
 0 <= X_2_33 <= 1
 0 <= X_2_34 <= 1
 0 <= X_2_35 <= 1
 0 <= X_2_36 <= 1
 0 <= X_2_37 <= 1
 0 <= X_2_38 <= 1
 0 <= X_2_39 <= 1
 0 <= X_2_40 <= 1
 0 <= X_2_41 <= 1
 0 <= X_2_42 <= 1
 0 <= X_2_43 <= 1
 0 <= X_2_44 <= 1
 0 <= X_2_45 <= 1
 0 <= X_2_46 <= 1
 0 <= X_2_47 <= 1
 0 <= X_2_48 <= 1
 0 <= X_2_49 <= 1
 0 <= X_2_50 <= 1
 0 <= X_2_51 <= 1
 0 <= X_2_52 <= 1
 0 <= X_2_53 <= 1
 0 <= X_2_54 <= 1
 0 <= X_2_55 <= 1
 0 <= X_2_56 <= 1
 0 <= X_2_57 <= 1
 0 <= X_2_58 <= 1
 0 <= X_2_59 <= 1
 0 <= X_2_60 <= 1
 0 <= X_2_61 <= 1
 0 <= X_2_62 <= 1
 0 <= W_0_0 <= 1
 0 <= W_0_1 <= 1
 0 <= W_0_2 <= 1
 0 <= W_0_3 <= 1
 0 <= W_0_4 <= 1
 0 <= W_0_5 <= 1
 0 <= W_0_6 <= 1
 0 <= W_0_7 <= 1
 0 <= W_0_8 <= 1
 0 <= W_0_9 <= 1
 0 <= W_0_10 <= 1
 0 <= W_0_11 <= 1
 0 <= W_0_12 <= 1
 0 <= W_0_13 <= 1
 0 <= W_0_14 <= 1
 0 <= W_0_15 <= 1
 0 <= W_0_16 <= 1
 0 <= W_0_17 <= 1
 0 <= W_0_18 <= 1
 0 <= W_0_19 <= 1
 0 <= W_0_20 <= 1
 0 <= W_0_21 <= 1
 0 <= W_0_22 <= 1
 0 <= W_0_23 <= 1
 0 <= W_0_24 <= 1
 0 <= W_0_25 <= 1
 0 <= W_0_26 <= 1
 0 <= W_0_27 <= 1
 0 <= W_1_0 <= 1
 0 <= W_1_1 <= 1
 0 <= W_1_2 <= 1
 0 <= W_1_3 <= 1
 0 <= W_1_4 <= 1
 0 <= W_1_5 <= 1
 0 <= W_1_6 <= 1
 0 <= W_1_7 <= 1
 0 <= W_1_8 <= 1
 0 <= W_1_9 <= 1
 0 <= W_1_10 <= 1
 0 <= W_1_11 <= 1
 0 <= W_1_12 <= 1
 0 <= W_1_13 <= 1
 0 <= W_1_14 <= 1
 0 <= W_1_15 <= 1
 0 <= W_1_16 <= 1
 0 <= W_1_17 <= 1
 0 <= W_1_18 <= 1
 0 <= W_1_19 <= 1
 0 <= W_1_20 <= 1
 0 <= W_1_21 <= 1
 0 <= W_1_22 <= 1
 0 <= W_1_23 <= 1
 0 <= W_1_24 <= 1
 0 <= W_1_25 <= 1
 0 <= W_1_26 <= 1
 0 <= W_1_27 <= 1
 0 <= W_2_0 <= 1
 0 <= W_2_1 <= 1
 0 <= W_2_2 <= 1
 0 <= W_2_3 <= 1
 0 <= W_2_4 <= 1
 0 <= W_2_5 <= 1
 0 <= W_2_6 <= 1
 0 <= W_2_7 <= 1
 0 <= W_2_8 <= 1
 0 <= W_2_9 <= 1
 0 <= W_2_10 <= 1
 0 <= W_2_11 <= 1
 0 <= W_2_12 <= 1
 0 <= W_2_13 <= 1
 0 <= W_2_14 <= 1
 0 <= W_2_15 <= 1
 0 <= W_2_16 <= 1
 0 <= W_2_17 <= 1
 0 <= W_2_18 <= 1
 0 <= W_2_19 <= 1
 0 <= W_2_20 <= 1
 0 <= W_2_21 <= 1
 0 <= W_2_22 <= 1
 0 <= W_2_23 <= 1
 0 <= W_2_24 <= 1
 0 <= W_2_25 <= 1
 0 <= W_2_26 <= 1
 0 <= W_2_27 <= 1
 0 <= Zbin_0_0 <= 1
 0 <= Zbin_0_1 <= 1
 0 <= Zbin_0_2 <= 1
 0 <= Zbin_0_3 <= 1
 0 <= Zbin_0_4 <= 1
 0 <= Zbin_0_5 <= 1
 0 <= Zbin_0_6 <= 1
 0 <= Zbin_0_7 <= 1
 0 <= Zbin_0_8 <= 1
 0 <= Zbin_0_9 <= 1
 0 <= Zbin_0_10 <= 1
 0 <= Zbin_0_11 <= 1
 0 <= Zbin_0_12 <= 1
 0 <= Zbin_0_13 <= 1
 0 <= Zbin_0_14 <= 1
 0 <= Zbin_0_15 <= 1
 0 <= Zbin_0_16 <= 1
 0 <= Zbin_0_17 <= 1
 0 <= Zbin_0_18 <= 1
 0 <= Zbin_0_19 <= 1
 0 <= Zbin_0_20 <= 1
 0 <= Zbin_0_21 <= 1
 0 <= Zbin_0_22 <= 1
 0 <= Zbin_0_23 <= 1
 0 <= Zbin_0_24 <= 1
 0 <= Zbin_0_25 <= 1
 0 <= Zbin_0_26 <= 1
 0 <= Zbin_0_27 <= 1
 0 <= Zbin_1_0 <= 1
 0 <= Zbin_1_1 <= 1
 0 <= Zbin_1_2 <= 1
 0 <= Zbin_1_3 <= 1
 0 <= Zbin_1_4 <= 1
 0 <= Zbin_1_5 <= 1
 0 <= Zbin_1_6 <= 1
 0 <= Zbin_1_7 <= 1
 0 <= Zbin_1_8 <= 1
 0 <= Zbin_1_9 <= 1
 0 <= Zbin_1_10 <= 1
 0 <= Zbin_1_11 <= 1
 0 <= Zbin_1_12 <= 1
 0 <= Zbin_1_13 <= 1
 0 <= Zbin_1_14 <= 1
 0 <= Zbin_1_15 <= 1
 0 <= Zbin_1_16 <= 1
 0 <= Zbin_1_17 <= 1
 0 <= Zbin_1_18 <= 1
 0 <= Zbin_1_19 <= 1
 0 <= Zbin_1_20 <= 1
 0 <= Zbin_1_21 <= 1
 0 <= Zbin_1_22 <= 1
 0 <= Zbin_1_23 <= 1
 0 <= Zbin_1_24 <= 1
 0 <= Zbin_1_25 <= 1
 0 <= Zbin_1_26 <= 1
 0 <= Zbin_1_27 <= 1
 0 <= Zbin_2_0 <= 1
 0 <= Zbin_2_1 <= 1
 0 <= Zbin_2_2 <= 1
 0 <= Zbin_2_3 <= 1
 0 <= Zbin_2_4 <= 1
 0 <= Zbin_2_5 <= 1
 0 <= Zbin_2_6 <= 1
 0 <= Zbin_2_7 <= 1
 0 <= Zbin_2_8 <= 1
 0 <= Zbin_2_9 <= 1
 0 <= Zbin_2_10 <= 1
 0 <= Zbin_2_11 <= 1
 0 <= Zbin_2_12 <= 1
 0 <= Zbin_2_13 <= 1
 0 <= Zbin_2_14 <= 1
 0 <= Zbin_2_15 <= 1
 0 <= Zbin_2_16 <= 1
 0 <= Zbin_2_17 <= 1
 0 <= Zbin_2_18 <= 1
 0 <= Zbin_2_19 <= 1
 0 <= Zbin_2_20 <= 1
 0 <= Zbin_2_21 <= 1
 0 <= Zbin_2_22 <= 1
 0 <= Zbin_2_23 <= 1
 0 <= Zbin_2_24 <= 1
 0 <= Zbin_2_25 <= 1
 0 <= Zbin_2_26 <= 1
 0 <= Zbin_2_27 <= 1
 0 <= r_0 <= 1
 0 <= r_1 <= 1
 0 <= r_2 <= 1
 0 <= r_3 <= 1
 0 <= r_4 <= 1
 0 <= r_5 <= 1
 0 <= r_6 <= 1
 0 <= r_7 <= 1
 0 <= r_8 <= 1
 0 <= r_9 <= 1
 0 <= r_10 <= 1
 0 <= r_11 <= 1
 0 <= r_12 <= 1
 0 <= r_13 <= 1
 0 <= r_14 <= 1
 0 <= r_15 <= 1
 0 <= r_16 <= 1
 0 <= r_17 <= 1
 0 <= r_18 <= 1
 0 <= r_19 <= 1
 0 <= r_20 <= 1
 0 <= r_21 <= 1
 0 <= r_22 <= 1
 0 <= r_23 <= 1
 0 <= r_24 <= 1
 0 <= r_25 <= 1
 0 <= r_26 <= 1
 0 <= r_27 <= 1
Integers
X_0_0 X_0_1 X_0_2 X_0_3 X_0_4 X_0_5 X_0_6 X_0_7 X_0_8 X_0_9 
X_0_10 X_0_11 X_0_12 X_0_13 X_0_14 X_0_15 X_0_16 X_0_17 X_0_18 X_0_19 
X_0_20 X_0_21 X_0_22 X_0_23 X_0_24 X_0_25 X_0_26 X_0_27 X_0_28 X_0_29 
X_0_30 X_0_31 X_0_32 X_0_33 X_0_34 X_0_35 X_0_36 X_0_37 X_0_38 X_0_39 
X_0_40 X_0_41 X_0_42 X_0_43 X_0_44 X_0_45 X_0_46 X_0_47 X_0_48 X_0_49 
X_0_50 X_0_51 X_0_52 X_0_53 X_0_54 X_0_55 X_0_56 X_0_57 X_0_58 X_0_59 
X_0_60 X_0_61 X_0_62 X_1_0 X_1_1 X_1_2 X_1_3 X_1_4 X_1_5 X_1_6 
X_1_7 X_1_8 X_1_9 X_1_10 X_1_11 X_1_12 X_1_13 X_1_14 X_1_15 X_1_16 
X_1_17 X_1_18 X_1_19 X_1_20 X_1_21 X_1_22 X_1_23 X_1_24 X_1_25 X_1_26 
X_1_27 X_1_28 X_1_29 X_1_30 X_1_31 X_1_32 X_1_33 X_1_34 X_1_35 X_1_36 
X_1_37 X_1_38 X_1_39 X_1_40 X_1_41 X_1_42 X_1_43 X_1_44 X_1_45 X_1_46 
X_1_47 X_1_48 X_1_49 X_1_50 X_1_51 X_1_52 X_1_53 X_1_54 X_1_55 X_1_56 
X_1_57 X_1_58 X_1_59 X_1_60 X_1_61 X_1_62 X_2_0 X_2_1 X_2_2 X_2_3 
X_2_4 X_2_5 X_2_6 X_2_7 X_2_8 X_2_9 X_2_10 X_2_11 X_2_12 X_2_13 
X_2_14 X_2_15 X_2_16 X_2_17 X_2_18 X_2_19 X_2_20 X_2_21 X_2_22 X_2_23 
X_2_24 X_2_25 X_2_26 X_2_27 X_2_28 X_2_29 X_2_30 X_2_31 X_2_32 X_2_33 
X_2_34 X_2_35 X_2_36 X_2_37 X_2_38 X_2_39 X_2_40 X_2_41 X_2_42 X_2_43 
X_2_44 X_2_45 X_2_46 X_2_47 X_2_48 X_2_49 X_2_50 X_2_51 X_2_52 X_2_53 
X_2_54 X_2_55 X_2_56 X_2_57 X_2_58 X_2_59 X_2_60 X_2_61 X_2_62 W_0_0 
W_0_1 W_0_2 W_0_3 W_0_4 W_0_5 W_0_6 W_0_7 W_0_8 W_0_9 W_0_10 
W_0_11 W_0_12 W_0_13 W_0_14 W_0_15 W_0_16 W_0_17 W_0_18 W_0_19 W_0_20 
W_0_21 W_0_22 W_0_23 W_0_24 W_0_25 W_0_26 W_0_27 W_1_0 W_1_1 W_1_2 
W_1_3 W_1_4 W_1_5 W_1_6 W_1_7 W_1_8 W_1_9 W_1_10 W_1_11 W_1_12 
W_1_13 W_1_14 W_1_15 W_1_16 W_1_17 W_1_18 W_1_19 W_1_20 W_1_21 W_1_22 
W_1_23 W_1_24 W_1_25 W_1_26 W_1_27 W_2_0 W_2_1 W_2_2 W_2_3 W_2_4 
W_2_5 W_2_6 W_2_7 W_2_8 W_2_9 W_2_10 W_2_11 W_2_12 W_2_13 W_2_14 
W_2_15 W_2_16 W_2_17 W_2_18 W_2_19 W_2_20 W_2_21 W_2_22 W_2_23 W_2_24 
W_2_25 W_2_26 W_2_27 Zbin_0_0 Zbin_0_1 Zbin_0_2 Zbin_0_3 Zbin_0_4 Zbin_0_5 Zbin_0_6 
Zbin_0_7 Zbin_0_8 Zbin_0_9 Zbin_0_10 Zbin_0_11 Zbin_0_12 Zbin_0_13 Zbin_0_14 Zbin_0_15 Zbin_0_16 
Zbin_0_17 Zbin_0_18 Zbin_0_19 Zbin_0_20 Zbin_0_21 Zbin_0_22 Zbin_0_23 Zbin_0_24 Zbin_0_25 Zbin_0_26 
Zbin_0_27 Zbin_1_0 Zbin_1_1 Zbin_1_2 Zbin_1_3 Zbin_1_4 Zbin_1_5 Zbin_1_6 Zbin_1_7 Zbin_1_8 
Zbin_1_9 Zbin_1_10 Zbin_1_11 Zbin_1_12 Zbin_1_13 Zbin_1_14 Zbin_1_15 Zbin_1_16 Zbin_1_17 Zbin_1_18 
Zbin_1_19 Zbin_1_20 Zbin_1_21 Zbin_1_22 Zbin_1_23 Zbin_1_24 Zbin_1_25 Zbin_1_26 Zbin_1_27 Zbin_2_0 
Zbin_2_1 Zbin_2_2 Zbin_2_3 Zbin_2_4 Zbin_2_5 Zbin_2_6 Zbin_2_7 Zbin_2_8 Zbin_2_9 Zbin_2_10 
Zbin_2_11 Zbin_2_12 Zbin_2_13 Zbin_2_14 Zbin_2_15 Zbin_2_16 Zbin_2_17 Zbin_2_18 Zbin_2_19 Zbin_2_20 
Zbin_2_21 Zbin_2_22 Zbin_2_23 Zbin_2_24 Zbin_2_25 Zbin_2_26 Zbin_2_27 Z_0_0 Z_0_1 Z_0_2 
Z_0_3 Z_0_4 Z_0_5 Z_0_6 Z_0_7 Z_0_8 Z_0_9 Z_0_10 Z_0_11 Z_0_12 
Z_0_13 Z_0_14 Z_0_15 Z_0_16 Z_0_17 Z_0_18 Z_0_19 Z_0_20 Z_0_21 Z_0_22 
Z_0_23 Z_0_24 Z_0_25 Z_0_26 Z_0_27 Z_1_0 Z_1_1 Z_1_2 Z_1_3 Z_1_4 
Z_1_5 Z_1_6 Z_1_7 Z_1_8 Z_1_9 Z_1_10 Z_1_11 Z_1_12 Z_1_13 Z_1_14 
Z_1_15 Z_1_16 Z_1_17 Z_1_18 Z_1_19 Z_1_20 Z_1_21 Z_1_22 Z_1_23 Z_1_24 
Z_1_25 Z_1_26 Z_1_27 Z_2_0 Z_2_1 Z_2_2 Z_2_3 Z_2_4 Z_2_5 Z_2_6 
Z_2_7 Z_2_8 Z_2_9 Z_2_10 Z_2_11 Z_2_12 Z_2_13 Z_2_14 Z_2_15 Z_2_16 
Z_2_17 Z_2_18 Z_2_19 Z_2_20 Z_2_21 Z_2_22 Z_2_23 Z_2_24 Z_2_25 Z_2_26 
Z_2_27 r_0 r_1 r_2 r_3 r_4 r_5 r_6 r_7 r_8 
r_9 r_10 r_11 r_12 r_13 r_14 r_15 r_16 r_17 r_18 
r_19 r_20 r_21 r_22 r_23 r_24 r_25 r_26 r_27 
End
